
Gurobi 10.0.1 (win64) logging started Fri Oct  6 18:55:24 2023

Set parameter LogFile to value "./results//log/URT_12_deadline_heurTrue.log"
Gurobi Optimizer version 10.0.1 build v10.0.1rc0 (win64)

CPU model: AMD Ryzen 7 3700X 8-Core Processor, instruction set [SSE2|AVX|AVX2]
Thread count: 8 physical cores, 16 logical processors, using up to 16 threads

Optimize a model with 507 rows, 331 columns and 1960 nonzeros
Model fingerprint: 0xf9949a77
Model has 1 quadratic constraint
Variable types: 0 continuous, 331 integer (285 binary)
Coefficient statistics:
  Matrix range     [1e+00, 1e+07]
  QMatrix range    [1e+00, 1e+00]
  QLMatrix range   [1e+00, 1e+01]
  Objective range  [1e+00, 1e+00]
  Bounds range     [1e+00, 1e+00]
  RHS range        [1e+00, 3e+07]

Warning: Completing partial solution with 301 unfixed non-continuous variables out of 331
User MIP start did not produce a new incumbent solution
User MIP start violates constraint initial_start_time_job1_stage0_machine1_constraint by 1.000000000

Presolve removed 83 rows and 120 columns
Presolve time: 0.01s
Presolved: 440 rows, 226 columns, 1923 nonzeros
Variable types: 0 continuous, 226 integer (165 binary)

Root relaxation: objective 0.000000e+00, 49 iterations, 0.00 seconds (0.00 work units)
Another try with MIP start

    Nodes    |    Current Node    |     Objective Bounds      |     Work
 Expl Unexpl |  Obj  Depth IntInf | Incumbent    BestBd   Gap | It/Node Time

     0     0    0.00000    0    2          -    0.00000      -     -    0s
H    0     0                      83.0000000    0.00000   100%     -    0s
H    0     0                      81.0000000    0.00000   100%     -    0s
H    0     0                      69.0000000    0.00000   100%     -    0s
     0     0    0.00000    0   11   69.00000    0.00000   100%     -    0s
H    0     0                      67.0000000    0.00000   100%     -    0s
     0     0    0.00000    0   12   67.00000    0.00000   100%     -    0s
H    0     0                      66.0000000    0.00000   100%     -    0s
H    0     0                      58.0000000    0.00000   100%     -    0s
     0     0    0.00000    0    1   58.00000    0.00000   100%     -    0s
     0     0    0.00000    0    5   58.00000    0.00000   100%     -    0s
     0     0    0.00000    0    7   58.00000    0.00000   100%     -    0s
     0     0    0.00000    0    6   58.00000    0.00000   100%     -    0s
H    0     0                      52.0000000    0.00000   100%     -    0s
H    0     0                      51.0000000    0.00000   100%     -    0s
     0     0    0.00000    0    5   51.00000    0.00000   100%     -    0s
     0     0    0.00000    0   12   51.00000    0.00000   100%     -    0s
     0     0    0.00000    0   10   51.00000    0.00000   100%     -    0s
     0     0    0.00000    0    3   51.00000    0.00000   100%     -    0s
     0     2    0.00000    0    3   51.00000    0.00000   100%     -    0s
H   73    52                      50.0000000    4.00000  92.0%  15.5    0s
H   86    61                      45.0000000    4.00000  91.1%  13.9    0s
H 6362    99                      40.0000000    4.00000  90.0%   0.3    0s
H 7744   100                      39.0000000    4.00000  89.7%   0.2    0s
H15319   117                      38.0000000    4.00000  89.5%   0.1    0s
H15319   111                      36.0000000    4.00000  88.9%   0.1    0s
H15328   111                      35.0000000    4.00000  88.6%   0.1    0s
H15348   119                      34.0000000    4.00000  88.2%   0.3    1s
H15348   113                      29.0000000    4.00000  86.2%   0.3    1s
H16149   540                      28.0000000    4.00000  85.7%   0.9    2s
 38044  7025   20.00000   66    9   28.00000    9.00000  67.9%   4.9    5s
 52690  6719   19.00000   75   30   28.00000   12.00000  57.1%   8.7   10s

Cutting planes:
  Learned: 122
  Gomory: 68
  Cover: 16
  Implied bound: 12
  MIR: 73
  StrongCG: 22
  Flow cover: 127
  Zero half: 8
  Relax-and-lift: 1

Explored 63418 nodes (771025 simplex iterations) in 11.90 seconds (4.03 work units)
Thread count was 16 (of 16 available processors)

Solution count 10: 28 29 34 ... 50

Optimal solution found (tolerance 1.00e-04)
Best objective 2.800000000000e+01, best bound 2.800000000000e+01, gap 0.0000%
Warning: constraint name "precedence between 0,0 to 0,2 if x_[0,0,0,2,3]=0, i.e. 0,2 before 0,0" has a space
Warning: constraint name "precedence between 0,0 to 0,2 if x_[0,0,0,2,3]=0, i.e. 0,2 before 0,0" has a space
Warning: default constraint names used to write mps file
